sat
(:added-eqs              49
 :arith-eq-adapter       23
 :arith-diseq            4
 :arith-fixed-eqs        4
 :arith-gcd-calls        1
 :arith-grobner-calls    1
 :arith-lower            22
 :arith-make-feasible    9
 :arith-max-columns      190
 :arith-max-rows         37
 :arith-nla-add-bounds   1
 :arith-nla-propagate-eq 13
 :arith-patches          1
 :arith-patches-success  1
 :arith-upper            50
 :binary-propagations    75
 :card2bv-rewrites       6
 :decisions              123
 :del-clause             15
 :elim-unconstrained     12
 :final-checks           3
 :max-memory             118.41
 :memory                 87.96
 :mk-bool-var            266
 :mk-clause              49
 :mk-clause-binary       231
 :num-allocs             35001621
 :num-checks             1
 :propagations           81
 :rlimit-count           156987
 :sat-mk-clause-2ary     39974
 :sat-mk-clause-nary     52673
 :sat-mk-var             27310
 :time                   0.45
 :total-time             0.47)
